0 0 0 0
0 1 0 0
0 2 0 8
0 3 0 0
0 4 0 16
0 5 0 8
0 6 0 34
0 7 0 25
0 8 0 8
0 9 0 64
0 10 0 23
0 11 0 34
0 12 0 41
0 13 0 52
0 14 0 34
0 15 0 65
0 16 0 41
0 17 0 16
0 18 0 84
0 19 0 24
0 20 0 42
0 21 0 45
0 22 0 16
0 23 0 83
0 24 0 44
0 25 0 25
0 26 0 73
0 27 0 59
0 28 0 59
0 29 0 24
0 30 0 90
0 31 0 72
0 32 0 63
0 33 0 35
0 34 0 40
0 35 0 80
0 36 0 55
0 37 0 64
0 38 0 74
0 39 0 22
0 40 0 41
0 41 0 44
0 42 0 84
0 43 0 52
0 44 0 80
0 45 0 35
0 46 0 63
0 47 0 74
0 48 0 65
0 49 0 88
0 50 0 77
0 51 0 88
0 52 0 81
0 53 0 93
0 54 0 93
0 55 0 98
0 56 0 83
0 57 0 93
0 58 0 97
0 59 0 101
0 60 0 98
0 61 0 105
